NAME : portcgen-24-2
COMMENT : portcgen N=24, seed=2
TYPE : TSP
DIMENSION : 24
EDGE_WEIGHT_TYPE : EUC_2D
NODE_COORD_SECTION
1 302023 84870
2 515675 137510
3 -29676 -51557
4 -212383 -123039
5 -107733 -140546
6 245072 -295311
7 212955 163160
8 -388409 -91438
9 273526 -67003
10 -73624 228050
11 69289 30875
12 195868 330928
13 -179923 162422
14 -25219 -208475
15 26378 -37185
16 26170 -8553
17 -80310 172820
18 78890 -331214
19 458440 -72448
20 -243049 225484
21 -186280 -184173
22 199555 259240
23 82322 18519
24 -216470 221226
